DATASET = "thpack5";
INSTANCE = "049";

WIDTH = 233;
HEIGHT = 220;
LENGTH = 587;

NO_OF_SHAPES = 12;
size = [|
  91,54,45 |
  105,77,72 |
  79,78,48 |
  109,76,59 |
  48,37,30 |
  44,37,27 |
  79,76,54 |
  116,78,20 |
  101,71,49 |
  102,100,49 |
  105,43,22 |
  107,84,61 |
|];

verticality = [|
  0,1,1 |
  1,1,1 |
  1,1,1 |
  1,1,1 |
  1,1,1 |
  1,1,1 |
  1,1,1 |
  0,0,1 |
  0,1,1 |
  0,0,1 |
  0,1,1 |
  1,1,1 |
|];

box_count = [
  11,
  6,
  14,
  5,
  7,
  9,
  11,
  3,
  9,
  8,
  14,
  7,
];
